15 965
525 7 490 7 335 11
525 7 490 7 335 11
525 7 490 7 335 11
528 7 485 7 368 7 122 9 951 13
528 7 485 7 368 7 122 9 951 13
528 7 485 7 368 7 122 9 951 13
535 8 492 8 398 9 279 10 184 14 58 26 897 50
535 8 492 8 398 9 231 10 69 14 899 50
535 8 493 8 407 9 310 10 223 16 94 22
525 7 482 7 367 7 213 9 32 11 824 18
525 7 482 7 367 7 213 9 32 11 824 18
525 7 505 7 381 7 218 9 50 11 850 15 664 21
525 7 482 7 365 7 115 9 943 13
525 7 482 7 365 7 115 9 943 13
525 7 445 7 263 7 62 9 888 11 718 18
